# Solution for model GasLib-40
# Objective value = 1.0384275284782339e+01
loadshed[innode_1] 0
loadshed[innode_2] 0
loadshed[innode_3] 0
loadshed[innode_4] 0
loadshed[innode_5] 0
loadshed[innode_6] 0
loadshed[innode_7] 0
loadshed[innode_8] 0
loadshed[source_1] -2.6835598813055528e-01
loadshed[source_2] -9.3244063437447844e-02
loadshed[source_3] 0.427285781460638
loadshed[sink_1] 0
loadshed[sink_2] 0
loadshed[sink_3] 0
loadshed[sink_4] 0
loadshed[sink_5] 0
loadshed[sink_6] 0
loadshed[sink_7] 0
loadshed[sink_8] 0
loadshed[sink_9] 0
loadshed[sink_10] 0
loadshed[sink_11] 0
loadshed[sink_12] 6.3496205563000285e-01
loadshed[sink_13] 0
loadshed[sink_14] 0
loadshed[sink_15] 0
loadshed[sink_16] 0
loadshed[sink_17] 0
loadshed[sink_18] 0
loadshed[sink_19] 0
loadshed[sink_20] 0
loadshed[sink_21] 0
loadshed[sink_22] 0
loadshed[sink_23] 0
loadshed[sink_24] 0
loadshed[sink_25] 0
loadshed[sink_26] 0
loadshed[sink_27] 0
loadshed[sink_28] 0
loadshed[sink_29] 0
flow[source_1,sink_3] 2.0051475048466727e+02
flow[innode_1,sink_16] 1.6354166666666970e+01
flow[innode_6,sink_13] 2.3938616770509348e+01
flow[sink_13,sink_14] 7.5844501038426806e+00
flow[sink_14,sink_10] -8.7697165628239873e+00
flow[sink_25,sink_26] 1.4992978878685358e+02
flow[sink_26,sink_9] 1.3357562212018669e+02
flow[sink_9,sink_18] 1.1722145545352002e+02
flow[sink_26,sink_4] 0
flow[sink_4,sink_20] -3.3705880155039665e+01
flow[sink_18,sink_6] 1.0086728878685335e+02
flow[sink_25,innode_8] -1.6780641715133089e+02
flow[sink_6,sink_7] 5.1804788786852896e+01
flow[sink_6,sink_22] 3.2708333333333641e+01
flow[sink_7,sink_24] 3.8678224715217667e+01
flow[sink_22,sink_1] 1.6354166666666970e+01
flow[sink_24,sink_21] 2.2324058048550995e+01
flow[sink_21,sink_12] 5.9698913818843282e+00
flow[sink_7,sink_5] -3.2276025950312714e+00
flow[sink_5,sink_17] -1.9581769261698014e+01
flow[sink_17,sink_4] -1.7351713488373036e+01
flow[sink_17,sink_8] -1.8584222439991606e+01
flow[sink_3,sink_23] 16.3541666666697
flow[sink_8,sink_20] -3.4938389106658235e+01
flow[sink_25,sink_20] 8.4998435928364472e+01
flow[sink_25,sink_15] -1.0741459100106454e+02
flow[sink_15,sink_29] -6.8290861734814484e+01
flow[sink_29,sink_28] 1.6354166666667879e+01
flow[sink_29,sink_2] 7.1832062599583423e+01
flow[sink_2,sink_15] 5.5477895932916681e+01
flow[sink_29,innode_7] -1.7283125766773264e+02
flow[innode_4,sink_19] 9.0540549896170660e+01
flow[sink_19,innode_3] 5.7832216562824215e+01
flow[innode_4,innode_5] 0
flow[sink_27,innode_5] 0
flow[sink_27,sink_19] -1.6354166666679703e+01
flow[sink_10,sink_11] 3.2708333333333641e+01
flow[sink_10,innode_2] 0
flow[sink_10,innode_3] -5.7832216562824215e+01
flow[innode_6,sink_25] -2.3938616770509348e+01
flow[sink_11,innode_1] 1.6354166666666970e+01
flow[sink_19,innode_2] 0
flow[source_3,innode_4] 9.0540549896170660e+01
flow[source_2,innode_7] 1.7283125766773264e+02
flow[sink_3,innode_8] 1.6780641715133089e+02
pressure[innode_1] 7.3986466532048652e+01
pressure[innode_2] 7.7345221625070124e+01
pressure[innode_3] 7.7217158730279849e+01
pressure[innode_4] 81.01325
pressure[innode_5] 7.6994091627926622e+01
pressure[innode_6] 73.8689151734475
pressure[innode_7] 81.01325
pressure[innode_8] 8.0343005788540864e+01
pressure[source_1] 81.01325
pressure[source_2] 81.01325
pressure[source_3] 81.01325
pressure[sink_1] 4.6278646284273137e+01
pressure[sink_2] 7.4571103710015109e+01
pressure[sink_3] 8.0343005788540864e+01
pressure[sink_4] 5.1132727850849861e+01
pressure[sink_5] 4.9010902307927964e+01
pressure[sink_6] 4.8379723894660508e+01
pressure[sink_7] 4.7668567628544032e+01
pressure[sink_8] 5.1170833570114411e+01
pressure[sink_9] 5.5314602464987694e+01
pressure[sink_10] 74.1381678396522
pressure[sink_11] 7.3986466532048652e+01
pressure[sink_12] 1.0132499999999998e+00
pressure[sink_13] 7.3736945579706173e+01
pressure[sink_14] 7.3723372560193056e+01
pressure[sink_15] 7.4389980606925477e+01
pressure[sink_16] 7.2964816697230972e+01
pressure[sink_17] 5.0469602576830866e+01
pressure[sink_18] 5.1073180826655452e+01
pressure[sink_19] 7.7345221625070124e+01
pressure[sink_20] 5.3605547942812727e+01
pressure[sink_21] 3.1376640871024719e+00
pressure[sink_22] 4.7342415426628150e+01
pressure[sink_23] 8.0178287776881078e+01
pressure[sink_24] 3.3848822884665646e+00
pressure[sink_25] 73.8689151734475
pressure[sink_26] 6.3309448198071550e+01
pressure[sink_27] 7.6994091627926622e+01
pressure[sink_28] 76.095408649445
pressure[sink_29] 7.6390690923062181e+01
interdiction[source_1,sink_3] 0
interdiction[innode_1,sink_16] 0
interdiction[innode_6,sink_13] 0
interdiction[sink_13,sink_14] 0
interdiction[sink_14,sink_10] 0
interdiction[sink_25,sink_26] 0
interdiction[sink_26,sink_9] 0
interdiction[sink_9,sink_18] 0
interdiction[sink_26,sink_4] 1
interdiction[sink_4,sink_20] 0
interdiction[sink_18,sink_6] 0
interdiction[sink_25,innode_8] 0
interdiction[sink_6,sink_7] 0
interdiction[sink_6,sink_22] 0
interdiction[sink_7,sink_24] 0
interdiction[sink_22,sink_1] 0
interdiction[sink_24,sink_21] 0
interdiction[sink_21,sink_12] 0
interdiction[sink_7,sink_5] 0
interdiction[sink_5,sink_17] 0
interdiction[sink_17,sink_4] 0
interdiction[sink_17,sink_8] 0
interdiction[sink_3,sink_23] 0
interdiction[sink_8,sink_20] 0
interdiction[sink_25,sink_20] 0
interdiction[sink_25,sink_15] 0
interdiction[sink_15,sink_29] 0
interdiction[sink_29,sink_28] 0
interdiction[sink_29,sink_2] 0
interdiction[sink_2,sink_15] 0
interdiction[sink_29,innode_7] 0
interdiction[innode_4,sink_19] 0
interdiction[sink_19,innode_3] 0
interdiction[innode_4,innode_5] 1
interdiction[sink_27,innode_5] 0
interdiction[sink_27,sink_19] 0
interdiction[sink_10,sink_11] 0
interdiction[sink_10,innode_2] 1
interdiction[sink_10,innode_3] 0
interdiction[innode_6,sink_25] 0
interdiction[sink_11,innode_1] 0
interdiction[sink_19,innode_2] 0
interdiction[source_3,innode_4] 0
interdiction[source_2,innode_7] 0
interdiction[sink_3,innode_8] 0
WCcheckFlow[source_1,sink_3] 39
WCcheckFlow[innode_1,sink_16] 1
WCcheckFlow[innode_6,sink_13] 13
WCcheckFlow[sink_13,sink_14] 12
WCcheckFlow[sink_14,sink_10] 11
WCcheckFlow[sink_25,sink_26] 15
WCcheckFlow[sink_26,sink_9] 14
WCcheckFlow[sink_9,sink_18] 13
WCcheckFlow[sink_26,sink_4] 0
WCcheckFlow[sink_4,sink_20] 1
WCcheckFlow[sink_18,sink_6] 12
WCcheckFlow[sink_25,innode_8] -36
WCcheckFlow[sink_6,sink_7] 9
WCcheckFlow[sink_6,sink_22] 2
WCcheckFlow[sink_7,sink_24] 3
WCcheckFlow[sink_22,sink_1] 1
WCcheckFlow[sink_24,sink_21] 2
WCcheckFlow[sink_21,sink_12] 1
WCcheckFlow[sink_7,sink_5] 5
WCcheckFlow[sink_5,sink_17] 4
WCcheckFlow[sink_17,sink_4] 2
WCcheckFlow[sink_17,sink_8] 1
WCcheckFlow[sink_3,sink_23] 1
WCcheckFlow[sink_8,sink_20] 0
WCcheckFlow[sink_25,sink_20] 0
WCcheckFlow[sink_25,sink_15] 6
WCcheckFlow[sink_15,sink_29] 5
WCcheckFlow[sink_29,sink_28] 1
WCcheckFlow[sink_29,sink_2] 1
WCcheckFlow[sink_2,sink_15] 0
WCcheckFlow[sink_29,innode_7] 2
WCcheckFlow[innode_4,sink_19] -2
WCcheckFlow[sink_19,innode_3] -6
WCcheckFlow[innode_4,innode_5] 0
WCcheckFlow[sink_27,innode_5] 1
WCcheckFlow[sink_27,sink_19] -2
WCcheckFlow[sink_10,sink_11] 3
WCcheckFlow[sink_10,innode_2] 0
WCcheckFlow[sink_10,innode_3] 7
WCcheckFlow[innode_6,sink_25] -14
WCcheckFlow[sink_11,innode_1] 2
WCcheckFlow[sink_19,innode_2] 1
WCcheckFlow[source_3,innode_4] -1
WCcheckFlow[source_2,innode_7] -1
WCcheckFlow[sink_3,innode_8] 37
